
Gurobi 9.0.1 (linux64) logging started Thu Apr 30 18:58:32 2020

Gurobi Optimizer version 9.0.1 build v9.0.1rc0 (linux64)
Optimize a model with 32942 rows, 27380 columns and 605400 nonzeros
Model fingerprint: 0x95ae01b6
Variable types: 0 continuous, 27380 integer (27342 binary)
Coefficient statistics:
  Matrix range     [1e+00, 2e+01]
  Objective range  [1e+00, 1e+02]
  Bounds range     [1e+00, 1e+00]
  RHS range        [1e+00, 1e+00]

User MIP start produced solution with objective 1186 (0.80s)
Loaded user MIP start with objective 1186

Presolve removed 15662 rows and 10109 columns (presolve time = 5s) ...
Presolve removed 15662 rows and 10169 columns (presolve time = 11s) ...
Presolve removed 15704 rows and 10169 columns
Presolve time: 13.18s
Presolved: 17238 rows, 17211 columns, 369620 nonzeros
Variable types: 0 continuous, 17211 integer (17211 binary)

Root simplex log...

Iteration    Objective       Primal Inf.    Dual Inf.      Time
       0    0.0000000e+00   1.580000e+02   0.000000e+00     15s
    2977    5.3400005e+02   1.038444e+04   0.000000e+00     20s
    4676    5.4442112e+02   1.835366e+04   0.000000e+00     25s
    6376    5.5099903e+02   2.022837e+04   0.000000e+00     30s
    7753    5.5640177e+02   1.646864e+04   0.000000e+00     35s
    9049    5.6050485e+02   5.958012e+03   0.000000e+00     40s
   10263    5.6436802e+02   3.443151e+03   0.000000e+00     45s
   11397    5.6658461e+02   3.098892e+03   0.000000e+00     50s
   12610    5.6888878e+02   1.238184e+03   0.000000e+00     55s
   13740    5.7012337e+02   7.756699e+02   0.000000e+00     60s
   14870    5.7148268e+02   7.632391e+02   0.000000e+00     65s
   15923    5.7225360e+02   1.543247e+03   0.000000e+00     70s
   16973    5.7265048e+02   9.548150e+02   0.000000e+00     75s
   18105    5.7303962e+02   1.035061e+03   0.000000e+00     80s
   18864    5.7325692e+02   0.000000e+00   0.000000e+00     84s

Root relaxation: objective 5.732569e+02, 18864 iterations, 70.02 seconds

    Nodes    |    Current Node    |     Objective Bounds      |     Work
 Expl Unexpl |  Obj  Depth IntInf | Incumbent    BestBd   Gap | It/Node Time

     0     0  573.25692    0 1618 1186.00000  573.25692  51.7%     -   91s
     0     0  606.07333    0 1589 1186.00000  606.07333  48.9%     -  152s
     0     0  606.14995    0 1544 1186.00000  606.14995  48.9%     -  159s
     0     0  606.15101    0 1541 1186.00000  606.15101  48.9%     -  161s
     0     0  616.69040    0 1628 1186.00000  616.69040  48.0%     -  203s
     0     0  616.91666    0 1622 1186.00000  616.91666  48.0%     -  216s
     0     0  616.92838    0 1665 1186.00000  616.92838  48.0%     -  218s
     0     0  616.93703    0 1634 1186.00000  616.93703  48.0%     -  220s
     0     0  616.93717    0 1629 1186.00000  616.93717  48.0%     -  222s
     0     0  629.40423    0 1660 1186.00000  629.40423  46.9%     -  280s
     0     0  629.92600    0 1652 1186.00000  629.92600  46.9%     -  297s
     0     0  629.95051    0 1636 1186.00000  629.95051  46.9%     -  300s
     0     0  629.95328    0 1641 1186.00000  629.95328  46.9%     -  301s
     0     0  633.70613    0 1611 1186.00000  633.70613  46.6%     -  342s
     0     0  634.27952    0 1655 1186.00000  634.27952  46.5%     -  367s
     0     0  634.38970    0 1650 1186.00000  634.38970  46.5%     -  374s
     0     0  634.39480    0 1642 1186.00000  634.39480  46.5%     -  376s
     0     0  635.59175    0 1618 1186.00000  635.59175  46.4%     -  411s
     0     0  635.75749    0 1595 1186.00000  635.75749  46.4%     -  418s
     0     0  635.76661    0 1588 1186.00000  635.76661  46.4%     -  420s
     0     0  636.29620    0 1622 1186.00000  636.29620  46.3%     -  436s
     0     0  636.43530    0 1653 1186.00000  636.43530  46.3%     -  444s
     0     0  636.45814    0 1619 1186.00000  636.45814  46.3%     -  446s
     0     0  636.46279    0 1625 1186.00000  636.46279  46.3%     -  448s
     0     0  636.69743    0 1627 1186.00000  636.69743  46.3%     -  463s
     0     0  636.72652    0 1635 1186.00000  636.72652  46.3%     -  467s
     0     0  636.73599    0 1623 1186.00000  636.73599  46.3%     -  469s
     0     0  636.89542    0 1640 1186.00000  636.89542  46.3%     -  480s
     0     0  636.91587    0 1649 1186.00000  636.91587  46.3%     -  494s
     0     0  636.91733    0 1672 1186.00000  636.91733  46.3%     -  495s
     0     0  637.12744    0 1648 1186.00000  637.12744  46.3%     -  507s
     0     0  637.21513    0 1652 1186.00000  637.21513  46.3%     -  515s
     0     0  637.22411    0 1658 1186.00000  637.22411  46.3%     -  518s
     0     0  637.84531    0 1614 1186.00000  637.84531  46.2%     -  541s
     0     0  637.99477    0 1647 1186.00000  637.99477  46.2%     -  550s
     0     0  638.01650    0 1662 1186.00000  638.01650  46.2%     -  553s
     0     0  638.02332    0 1653 1186.00000  638.02332  46.2%     -  555s
     0     0  638.59125    0 1615 1186.00000  638.59125  46.2%     -  571s
     0     0  638.62281    0 1634 1186.00000  638.62281  46.2%     -  576s
     0     0  638.63085    0 1641 1186.00000  638.63085  46.2%     -  579s
     0     0  639.15241    0 1612 1186.00000  639.15241  46.1%     -  594s
     0     0  639.18870    0 1625 1186.00000  639.18870  46.1%     -  599s
     0     0  639.19775    0 1632 1186.00000  639.19775  46.1%     -  601s
     0     0  639.25917    0 1630 1186.00000  639.25917  46.1%     -  609s
     0     0  639.28566    0 1674 1186.00000  639.28566  46.1%     -  613s
     0     0  639.28691    0 1652 1186.00000  639.28691  46.1%     -  615s
     0     0  639.29241    0 1666 1186.00000  639.29241  46.1%     -  621s
     0     0  639.29241    0 1659 1186.00000  639.29241  46.1%     -  630s
     0     2  639.34592    0 1659 1186.00000  639.34592  46.1%     -  775s
     1     3  640.51428    1 1626 1186.00000  639.34592  46.1%  2103  789s
     2     4  647.85043    1 1496 1186.00000  640.51448  46.0%  6962  863s
     3     5  659.88766    2 1532 1186.00000  640.51483  46.0%  9552  955s
     4     6  641.65045    2 1536 1186.00000  641.65045  45.9%  7738  970s
     5     7  669.00055    3 1406 1186.00000  641.65045  45.9% 11788 1116s
     6     8  641.81528    3 1528 1186.00000  641.81528  45.9%  9981 1121s
     7     9  642.23063    4 1579 1186.00000  641.81770  45.9%  8700 1128s
     8    10  642.69077    5 1573 1186.00000  641.81770  45.9%  7829 1139s
     9    11  642.88102    6 1542 1186.00000  641.81770  45.9%  7096 1145s
    10    12  670.82573    6 1329 1186.00000  641.81770  45.9%  8303 1228s
    11    13  644.23677    7 1605 1186.00000  641.81770  45.9%  7916 1249s
    12    14  676.56176    7 1388 1186.00000  641.81770  45.9%  8370 1313s
    13    15  644.53923    8 1589 1186.00000  641.81770  45.9%  7884 1324s
    14    16  669.36564    9 1365 1186.00000  641.81770  45.9%  8338 1394s
    15    17  644.90790    9 1601 1186.00000  641.81770  45.9%  7881 1403s
    16    18  645.59009   10 1579 1186.00000  641.81770  45.9%  7490 1414s
    17    19  688.76747   10 1292 1186.00000  641.81770  45.9%  8927 1590s
    18    20  646.10190   11 1625 1186.00000  641.81770  45.9%  8568 1603s
    19    21  673.25296   11 1401 1186.00000  641.81770  45.9%  8700 1658s
    20    22  646.25831   12 1610 1186.00000  641.81770  45.9%  8304 1663s
    21    23  646.56745   13 1605 1186.00000  641.81770  45.9%  7979 1673s
    22    24  680.05049   13 1348 1186.00000  641.81770  45.9%  9181 1864s
    23    25  646.91295   14 1641 1186.00000  641.81770  45.9%  8859 1873s
    24    26  647.15138   15 1628 1186.00000  641.81770  45.9%  8550 1881s
    25    27  675.56179   15 1453 1186.00000  641.81770  45.9%  8697 1940s
    26    28  647.39630   16 1626 1186.00000  641.81770  45.9%  8434 1948s
    27    29  675.27521   16 1522 1186.00000  641.81770  45.9%  8747 2040s
    28    30  647.59096   17 1604 1186.00000  641.81770  45.9%  8476 2046s
    29    31  683.64132   17 1395 1186.00000  641.81770  45.9%  9123 2195s
    31    33  667.32539   18 1348 1186.00000  641.81770  45.9%  9322 2332s
    32    34  648.73147   19 1617 1186.00000  641.81770  45.9%  9162 2352s
    33    35  663.04260   19 1420 1186.00000  641.81770  45.9%  9229 2404s
    34    36  649.80335   20 1581 1186.00000  641.81770  45.9%  9026 2420s
    35    37  679.00471   20 1438 1186.00000  641.81770  45.9%  9240 2496s
    36    38  650.09706   21 1584 1186.00000  641.81770  45.9%  9009 2502s
    37    39  650.34504   22 1599 1186.00000  641.81770  45.9%  8802 2511s
    38    40  684.44876   22 1381 1186.00000  641.81770  45.9%  9196 2640s
    39    41  650.61578   23 1570 1186.00000  641.81770  45.9%  8992 2649s
    40    42  675.27511   23 1355 1186.00000  641.81770  45.9%  9497 2813s
    41    43  651.57100   24 1595 1186.00000  641.81770  45.9%  9347 2829s
    42    44  651.93083   25 1592 1186.00000  641.81770  45.9%  9179 2841s
    43    45  652.20750   26 1574 1186.00000  641.81770  45.9%  9012 2851s
    44    46  671.63477   27 1343 1186.00000  641.81770  45.9%  9034 2898s
    45    47  652.31421   27 1577 1186.00000  641.81770  45.9%  8857 2920s
    47    49  671.29801   28 1337 1186.00000  641.81770  45.9%  8691 2967s
    49    51  672.45247   29 1363 1186.00000  641.81770  45.9%  8512 3010s
    51    53  672.97218   30 1318 1186.00000  641.81770  45.9%  8473 3096s
    52    54  652.52208   31 1589 1186.00000  641.81770  45.9%  8334 3102s
    53    55  672.01112   31 1317 1186.00000  641.81770  45.9%  8361 3151s
    54    56  653.50222   32 1513 1186.00000  641.81770  45.9%  8247 3188s
    55    57  653.93301   33 1541 1186.00000  641.81770  45.9%  8121 3196s
    56    58  681.67947   33 1406 1186.00000  641.81770  45.9%  8363 3310s
    57    59  654.12271   34 1570 1186.00000  641.81770  45.9%  8239 3317s
    58    60  677.13112   34 1358 1186.00000  641.81770  45.9%  8307 3370s
    60    62  674.59341   35 1272 1186.00000  641.81770  45.9%  8185 3414s
    61    63  654.97655   36 1558 1186.00000  641.81770  45.9%  8080 3425s
    62    64  673.96544   36 1387 1186.00000  641.81770  45.9%  8293 3535s
    63    65  679.16241   37 1368 1186.00000  641.81770  45.9%  8373 3600s

Cutting planes:
  MIR: 73
  StrongCG: 2
  Zero half: 39
  RLT: 300

Explored 64 nodes (604524 simplex iterations) in 3600.27 seconds
Thread count was 1 (of 40 available processors)

Solution count 1: 1186 

Time limit reached
Best objective 1.186000000000e+03, best bound 6.420000000000e+02, gap 45.8685%

User-callback calls 32802, time in user-callback 0.09 sec
